Instance Name : r111
Authors       : Shobb<shobb@narod.ru>
Date          : 2018-jun-12
Reference     : http://shobb.narod.ru/vrppd.html
Solution
Route 1 : 095 042 014 044 038 086 016 017 005 060 089
Route 2 : 001 051 081 033 079 009 078 029 068 003 077
Route 3 : 002 057 015 043 041 022 074 056 072 021 058
Route 4 : 052 031 088 062 011 063 010 090 032 020 070
Route 5 : 083 018 045 008 084 061 091 100 085 093 096
Route 6 : 092 098 037 059 099 097 087 006 094 013
Route 7 : 028 050 076 053 040 004 054 012 026
Route 8 : 073 075 023 067 039 055 025 024 080
Route 9 : 007 019 064 049 036 046 047 048 082
Route 10 : 027 069 030 065 066 071 035 034
